60

 0   1   2   3   4   5   6   7   8   9   1   2   3   4   5   6   7   8   9  10   2   3   4   5   6   7   8   9  10  11   3   4   5   6   7   8   9  10  11  12   4   5   6   7   8   9  10  11  12  13   5   6   7   8   9  10  11  12  13  14  
 1   0   1   2   3   4   5   6   7   8   2   1   2   3   4   5   6   7   8   9   3   2   3   4   5   6   7   8   9  10   4   3   4   5   6   7   8   9  10  11   5   4   5   6   7   8   9  10  11  12   6   5   6   7   8   9  10  11  12  13  
 2   1   0   1   2   3   4   5   6   7   3   2   1   2   3   4   5   6   7   8   4   3   2   3   4   5   6   7   8   9   5   4   3   4   5   6   7   8   9  10   6   5   4   5   6   7   8   9  10  11   7   6   5   6   7   8   9  10  11  12  
 3   2   1   0   1   2   3   4   5   6   4   3   2   1   2   3   4   5   6   7   5   4   3   2   3   4   5   6   7   8   6   5   4   3   4   5   6   7   8   9   7   6   5   4   5   6   7   8   9  10   8   7   6   5   6   7   8   9  10  11  
 4   3   2   1   0   1   2   3   4   5   5   4   3   2   1   2   3   4   5   6   6   5   4   3   2   3   4   5   6   7   7   6   5   4   3   4   5   6   7   8   8   7   6   5   4   5   6   7   8   9   9   8   7   6   5   6   7   8   9  10  
 5   4   3   2   1   0   1   2   3   4   6   5   4   3   2   1   2   3   4   5   7   6   5   4   3   2   3   4   5   6   8   7   6   5   4   3   4   5   6   7   9   8   7   6   5   4   5   6   7   8  10   9   8   7   6   5   6   7   8   9  
 6   5   4   3   2   1   0   1   2   3   7   6   5   4   3   2   1   2   3   4   8   7   6   5   4   3   2   3   4   5   9   8   7   6   5   4   3   4   5   6  10   9   8   7   6   5   4   5   6   7  11  10   9   8   7   6   5   6   7   8  
 7   6   5   4   3   2   1   0   1   2   8   7   6   5   4   3   2   1   2   3   9   8   7   6   5   4   3   2   3   4  10   9   8   7   6   5   4   3   4   5  11  10   9   8   7   6   5   4   5   6  12  11  10   9   8   7   6   5   6   7  
 8   7   6   5   4   3   2   1   0   1   9   8   7   6   5   4   3   2   1   2  10   9   8   7   6   5   4   3   2   3  11  10   9   8   7   6   5   4   3   4  12  11  10   9   8   7   6   5   4   5  13  12  11  10   9   8   7   6   5   6  
 9   8   7   6   5   4   3   2   1   0  10   9   8   7   6   5   4   3   2   1  11  10   9   8   7   6   5   4   3   2  12  11  10   9   8   7   6   5   4   3  13  12  11  10   9   8   7   6   5   4  14  13  12  11  10   9   8   7   6   5  
 1   2   3   4   5   6   7   8   9  10   0   1   2   3   4   5   6   7   8   9   1   2   3   4   5   6   7   8   9  10   2   3   4   5   6   7   8   9  10  11   3   4   5   6   7   8   9  10  11  12   4   5   6   7   8   9  10  11  12  13  
 2   1   2   3   4   5   6   7   8   9   1   0   1   2   3   4   5   6   7   8   2   1   2   3   4   5   6   7   8   9   3   2   3   4   5   6   7   8   9  10   4   3   4   5   6   7   8   9  10  11   5   4   5   6   7   8   9  10  11  12  
 3   2   1   2   3   4   5   6   7   8   2   1   0   1   2   3   4   5   6   7   3   2   1   2   3   4   5   6   7   8   4   3   2   3   4   5   6   7   8   9   5   4   3   4   5   6   7   8   9  10   6   5   4   5   6   7   8   9  10  11  
 4   3   2   1   2   3   4   5   6   7   3   2   1   0   1   2   3   4   5   6   4   3   2   1   2   3   4   5   6   7   5   4   3   2   3   4   5   6   7   8   6   5   4   3   4   5   6   7   8   9   7   6   5   4   5   6   7   8   9  10  
 5   4   3   2   1   2   3   4   5   6   4   3   2   1   0   1   2   3   4   5   5   4   3   2   1   2   3   4   5   6   6   5   4   3   2   3   4   5   6   7   7   6   5   4   3   4   5   6   7   8   8   7   6   5   4   5   6   7   8   9  
 6   5   4   3   2   1   2   3   4   5   5   4   3   2   1   0   1   2   3   4   6   5   4   3   2   1   2   3   4   5   7   6   5   4   3   2   3   4   5   6   8   7   6   5   4   3   4   5   6   7   9   8   7   6   5   4   5   6   7   8  
 7   6   5   4   3   2   1   2   3   4   6   5   4   3   2   1   0   1   2   3   7   6   5   4   3   2   1   2   3   4   8   7   6   5   4   3   2   3   4   5   9   8   7   6   5   4   3   4   5   6  10   9   8   7   6   5   4   5   6   7  
 8   7   6   5   4   3   2   1   2   3   7   6   5   4   3   2   1   0   1   2   8   7   6   5   4   3   2   1   2   3   9   8   7   6   5   4   3   2   3   4  10   9   8   7   6   5   4   3   4   5  11  10   9   8   7   6   5   4   5   6  
 9   8   7   6   5   4   3   2   1   2   8   7   6   5   4   3   2   1   0   1   9   8   7   6   5   4   3   2   1   2  10   9   8   7   6   5   4   3   2   3  11  10   9   8   7   6   5   4   3   4  12  11  10   9   8   7   6   5   4   5  
10   9   8   7   6   5   4   3   2   1   9   8   7   6   5   4   3   2   1   0  10   9   8   7   6   5   4   3   2   1  11  10   9   8   7   6   5   4   3   2  12  11  10   9   8   7   6   5   4   3  13  12  11  10   9   8   7   6   5   4  
 2   3   4   5   6   7   8   9  10  11   1   2   3   4   5   6   7   8   9  10   0   1   2   3   4   5   6   7   8   9   1   2   3   4   5   6   7   8   9  10   2   3   4   5   6   7   8   9  10  11   3   4   5   6   7   8   9  10  11  12  
 3   2   3   4   5   6   7   8   9  10   2   1   2   3   4   5   6   7   8   9   1   0   1   2   3   4   5   6   7   8   2   1   2   3   4   5   6   7   8   9   3   2   3   4   5   6   7   8   9  10   4   3   4   5   6   7   8   9  10  11  
 4   3   2   3   4   5   6   7   8   9   3   2   1   2   3   4   5   6   7   8   2   1   0   1   2   3   4   5   6   7   3   2   1   2   3   4   5   6   7   8   4   3   2   3   4   5   6   7   8   9   5   4   3   4   5   6   7   8   9  10  
 5   4   3   2   3   4   5   6   7   8   4   3   2   1   2   3   4   5   6   7   3   2   1   0   1   2   3   4   5   6   4   3   2   1   2   3   4   5   6   7   5   4   3   2   3   4   5   6   7   8   6   5   4   3   4   5   6   7   8   9  
 6   5   4   3   2   3   4   5   6   7   5   4   3   2   1   2   3   4   5   6   4   3   2   1   0   1   2   3   4   5   5   4   3   2   1   2   3   4   5   6   6   5   4   3   2   3   4   5   6   7   7   6   5   4   3   4   5   6   7   8  
 7   6   5   4   3   2   3   4   5   6   6   5   4   3   2   1   2   3   4   5   5   4   3   2   1   0   1   2   3   4   6   5   4   3   2   1   2   3   4   5   7   6   5   4   3   2   3   4   5   6   8   7   6   5   4   3   4   5   6   7  
 8   7   6   5   4   3   2   3   4   5   7   6   5   4   3   2   1   2   3   4   6   5   4   3   2   1   0   1   2   3   7   6   5   4   3   2   1   2   3   4   8   7   6   5   4   3   2   3   4   5   9   8   7   6   5   4   3   4   5   6  
 9   8   7   6   5   4   3   2   3   4   8   7   6   5   4   3   2   1   2   3   7   6   5   4   3   2   1   0   1   2   8   7   6   5   4   3   2   1   2   3   9   8   7   6   5   4   3   2   3   4  10   9   8   7   6   5   4   3   4   5  
10   9   8   7   6   5   4   3   2   3   9   8   7   6   5   4   3   2   1   2   8   7   6   5   4   3   2   1   0   1   9   8   7   6   5   4   3   2   1   2  10   9   8   7   6   5   4   3   2   3  11  10   9   8   7   6   5   4   3   4  
11  10   9   8   7   6   5   4   3   2  10   9   8   7   6   5   4   3   2   1   9   8   7   6   5   4   3   2   1   0  10   9   8   7   6   5   4   3   2   1  11  10   9   8   7   6   5   4   3   2  12  11  10   9   8   7   6   5   4   3  
 3   4   5   6   7   8   9  10  11  12   2   3   4   5   6   7   8   9  10  11   1   2   3   4   5   6   7   8   9  10   0   1   2   3   4   5   6   7   8   9   1   2   3   4   5   6   7   8   9  10   2   3   4   5   6   7   8   9  10  11  
 4   3   4   5   6   7   8   9  10  11   3   2   3   4   5   6   7   8   9  10   2   1   2   3   4   5   6   7   8   9   1   0   1   2   3   4   5   6   7   8   2   1   2   3   4   5   6   7   8   9   3   2   3   4   5   6   7   8   9  10  
 5   4   3   4   5   6   7   8   9  10   4   3   2   3   4   5   6   7   8   9   3   2   1   2   3   4   5   6   7   8   2   1   0   1   2   3   4   5   6   7   3   2   1   2   3   4   5   6   7   8   4   3   2   3   4   5   6   7   8   9  
 6   5   4   3   4   5   6   7   8   9   5   4   3   2   3   4   5   6   7   8   4   3   2   1   2   3   4   5   6   7   3   2   1   0   1   2   3   4   5   6   4   3   2   1   2   3   4   5   6   7   5   4   3   2   3   4   5   6   7   8  
 7   6   5   4   3   4   5   6   7   8   6   5   4   3   2   3   4   5   6   7   5   4   3   2   1   2   3   4   5   6   4   3   2   1   0   1   2   3   4   5   5   4   3   2   1   2   3   4   5   6   6   5   4   3   2   3   4   5   6   7  
 8   7   6   5   4   3   4   5   6   7   7   6   5   4   3   2   3   4   5   6   6   5   4   3   2   1   2   3   4   5   5   4   3   2   1   0   1   2   3   4   6   5   4   3   2   1   2   3   4   5   7   6   5   4   3   2   3   4   5   6  
 9   8   7   6   5   4   3   4   5   6   8   7   6   5   4   3   2   3   4   5   7   6   5   4   3   2   1   2   3   4   6   5   4   3   2   1   0   1   2   3   7   6   5   4   3   2   1   2   3   4   8   7   6   5   4   3   2   3   4   5  
10   9   8   7   6   5   4   3   4   5   9   8   7   6   5   4   3   2   3   4   8   7   6   5   4   3   2   1   2   3   7   6   5   4   3   2   1   0   1   2   8   7   6   5   4   3   2   1   2   3   9   8   7   6   5   4   3   2   3   4  
11  10   9   8   7   6   5   4   3   4  10   9   8   7   6   5   4   3   2   3   9   8   7   6   5   4   3   2   1   2   8   7   6   5   4   3   2   1   0   1   9   8   7   6   5   4   3   2   1   2  10   9   8   7   6   5   4   3   2   3  
12  11  10   9   8   7   6   5   4   3  11  10   9   8   7   6   5   4   3   2  10   9   8   7   6   5   4   3   2   1   9   8   7   6   5   4   3   2   1   0  10   9   8   7   6   5   4   3   2   1  11  10   9   8   7   6   5   4   3   2  
 4   5   6   7   8   9  10  11  12  13   3   4   5   6   7   8   9  10  11  12   2   3   4   5   6   7   8   9  10  11   1   2   3   4   5   6   7   8   9  10   0   1   2   3   4   5   6   7   8   9   1   2   3   4   5   6   7   8   9  10  
 5   4   5   6   7   8   9  10  11  12   4   3   4   5   6   7   8   9  10  11   3   2   3   4   5   6   7   8   9  10   2   1   2   3   4   5   6   7   8   9   1   0   1   2   3   4   5   6   7   8   2   1   2   3   4   5   6   7   8   9  
 6   5   4   5   6   7   8   9  10  11   5   4   3   4   5   6   7   8   9  10   4   3   2   3   4   5   6   7   8   9   3   2   1   2   3   4   5   6   7   8   2   1   0   1   2   3   4   5   6   7   3   2   1   2   3   4   5   6   7   8  
 7   6   5   4   5   6   7   8   9  10   6   5   4   3   4   5   6   7   8   9   5   4   3   2   3   4   5   6   7   8   4   3   2   1   2   3   4   5   6   7   3   2   1   0   1   2   3   4   5   6   4   3   2   1   2   3   4   5   6   7  
 8   7   6   5   4   5   6   7   8   9   7   6   5   4   3   4   5   6   7   8   6   5   4   3   2   3   4   5   6   7   5   4   3   2   1   2   3   4   5   6   4   3   2   1   0   1   2   3   4   5   5   4   3   2   1   2   3   4   5   6  
 9   8   7   6   5   4   5   6   7   8   8   7   6   5   4   3   4   5   6   7   7   6   5   4   3   2   3   4   5   6   6   5   4   3   2   1   2   3   4   5   5   4   3   2   1   0   1   2   3   4   6   5   4   3   2   1   2   3   4   5  
10   9   8   7   6   5   4   5   6   7   9   8   7   6   5   4   3   4   5   6   8   7   6   5   4   3   2   3   4   5   7   6   5   4   3   2   1   2   3   4   6   5   4   3   2   1   0   1   2   3   7   6   5   4   3   2   1   2   3   4  
11  10   9   8   7   6   5   4   5   6  10   9   8   7   6   5   4   3   4   5   9   8   7   6   5   4   3   2   3   4   8   7   6   5   4   3   2   1   2   3   7   6   5   4   3   2   1   0   1   2   8   7   6   5   4   3   2   1   2   3  
12  11  10   9   8   7   6   5   4   5  11  10   9   8   7   6   5   4   3   4  10   9   8   7   6   5   4   3   2   3   9   8   7   6   5   4   3   2   1   2   8   7   6   5   4   3   2   1   0   1   9   8   7   6   5   4   3   2   1   2  
13  12  11  10   9   8   7   6   5   4  12  11  10   9   8   7   6   5   4   3  11  10   9   8   7   6   5   4   3   2  10   9   8   7   6   5   4   3   2   1   9   8   7   6   5   4   3   2   1   0  10   9   8   7   6   5   4   3   2   1  
 5   6   7   8   9  10  11  12  13  14   4   5   6   7   8   9  10  11  12  13   3   4   5   6   7   8   9  10  11  12   2   3   4   5   6   7   8   9  10  11   1   2   3   4   5   6   7   8   9  10   0   1   2   3   4   5   6   7   8   9  
 6   5   6   7   8   9  10  11  12  13   5   4   5   6   7   8   9  10  11  12   4   3   4   5   6   7   8   9  10  11   3   2   3   4   5   6   7   8   9  10   2   1   2   3   4   5   6   7   8   9   1   0   1   2   3   4   5   6   7   8  
 7   6   5   6   7   8   9  10  11  12   6   5   4   5   6   7   8   9  10  11   5   4   3   4   5   6   7   8   9  10   4   3   2   3   4   5   6   7   8   9   3   2   1   2   3   4   5   6   7   8   2   1   0   1   2   3   4   5   6   7  
 8   7   6   5   6   7   8   9  10  11   7   6   5   4   5   6   7   8   9  10   6   5   4   3   4   5   6   7   8   9   5   4   3   2   3   4   5   6   7   8   4   3   2   1   2   3   4   5   6   7   3   2   1   0   1   2   3   4   5   6  
 9   8   7   6   5   6   7   8   9  10   8   7   6   5   4   5   6   7   8   9   7   6   5   4   3   4   5   6   7   8   6   5   4   3   2   3   4   5   6   7   5   4   3   2   1   2   3   4   5   6   4   3   2   1   0   1   2   3   4   5  
10   9   8   7   6   5   6   7   8   9   9   8   7   6   5   4   5   6   7   8   8   7   6   5   4   3   4   5   6   7   7   6   5   4   3   2   3   4   5   6   6   5   4   3   2   1   2   3   4   5   5   4   3   2   1   0   1   2   3   4  
11  10   9   8   7   6   5   6   7   8  10   9   8   7   6   5   4   5   6   7   9   8   7   6   5   4   3   4   5   6   8   7   6   5   4   3   2   3   4   5   7   6   5   4   3   2   1   2   3   4   6   5   4   3   2   1   0   1   2   3  
12  11  10   9   8   7   6   5   6   7  11  10   9   8   7   6   5   4   5   6  10   9   8   7   6   5   4   3   4   5   9   8   7   6   5   4   3   2   3   4   8   7   6   5   4   3   2   1   2   3   7   6   5   4   3   2   1   0   1   2  
13  12  11  10   9   8   7   6   5   6  12  11  10   9   8   7   6   5   4   5  11  10   9   8   7   6   5   4   3   4  10   9   8   7   6   5   4   3   2   3   9   8   7   6   5   4   3   2   1   2   8   7   6   5   4   3   2   1   0   1  
14  13  12  11  10   9   8   7   6   5  13  12  11  10   9   8   7   6   5   4  12  11  10   9   8   7   6   5   4   3  11  10   9   8   7   6   5   4   3   2  10   9   8   7   6   5   4   3   2   1   9   8   7   6   5   4   3   2   1   0  

 0   1   2  98  11   0  52   2   1   0   0   9   1   0   1   2   2   1  25  44  13  24   0   1  66   1  16   0   0   0   1   1   1   3   0   7   1   0   5  28   1  41   6   0   0  68   0  21   1  21  19   0  42   0   1   0   0  94   1   1  
 0   0   1   0   1  61   1   1   1  10  49   1   1   3  21  71   4   1   0   0   0   8   1   1  32   1   0   0   7  28  26   1   0   0   1   2  11   1   1  10   0   0   1   0  55   1   1   0   0   0   1   4   1   1  13   0   0  92  37   1  
32  62   0   1   2   1   0   0   4   0   0  27  24   1   0  11  40   7  87   1   1   0   1   1   0  24   0  17  12   0  18  68  24  82   1   3   1  79   1   1   0   0   1  37   1   1  12   1   0   1  43   1   3  12   1   2   0   0   1   1  
 0   2  51   0   1  22   0  42   1  29   0   0   1   1   0   1   0  16   8   0   1  10   0   1  10   1   8   1   2   1  23   7  10   0   1   0   1  78   3   1   1   1   0   3  71   0   0   1  14   0   1   7  38   1  78   0   1   1   0   2  
 1   0  31   0   0   0  12   1  93   1   1   0   1   1   1  28   0   0   0   1  82   1   1   0   1   0   8   1   0   1   0   0   1  53   1   0  15   0   0   1  14  92   1   1   6  16  38   1   1   1   0  41  31   1   4   3   1   0  70   1  
 1   1  16  84  47   0  25   1   0  19  46   8   1   1  71   1   2  70   1   0   0   0  20   0   3   0   0   0   0   1   1   1   0   1   0   1   1  62   0   0   0   1   4  92   1   1  20   1  12   0   1   0  10   1   1  30   0  57   0   0  
 0  25   1   0   6   0   0   1  17   7   1  45   1   4   0   0  12  73   0   0   1   1   1   1  92   1   1   0   9   1   2   2   0  83   1   1   1   0   0  61   1   0   0  64   1  12   8   0   0   0   0   1   1   1  23  66   1   0   0   0  
 1   1  13   1   7   0  12   0   0   1   1   1   1   1   1  35   1   1   1   9   1   1   0   1   1   4  41   4  18  42   0  83   0   1   7   0   0  29  18  12   1   1   5   1   1   7   0  54   1   6   0  36   1   5  39  50   0   1  70   0  
64   1   1   0   1   1   1  45   0   1  43  12   0   1   6  28   1  39  51   1   0   0   1   1   0   0  15   1   1   1   9   0   0   1  57   1  31  24   1   7   6   0   0  57  57   1   1   4   1   1   1  65   1   1   1   1   1   1   0   1  
 0  12   1  52   1  37   2  93   0   0   0  43   0  95   0   1   8   1  22   0   1  36  30   0   1   1   0   1  60   1   1   1   0  86   0   1   0   1   0   1   1  20  83   1   0   1   1   0   0   3   0   0   0   0  66   0   6   1   1   1  
14   0  30   0  12   1   9   1   0   1   0   0   0   0   1   0  25   0  97   0   1   2   8  20   0   1   1  43   0   1   0   0   1  90   1   0  52   0   1   1   0   1   0   1  56   0   0   0   1  10   1   1   0   1   0   1  42   0   1   1  
 0  24   1   1   0  98   1  10  12   1   1   0  63   1   0   6   3   0  56  16   1   1   0   1   0   1   0   0  55  26   0  43   0   3  20  40  33   1   1   2   0   0  10   1   1  62   1  13  37  35   1   1  65   1  84   0  32  16   3   1  
10  46   0   4  12  30   0  66   9   7   1  37   0   0  50  23   0  37   1   0   1   1   1   1   1   1  91   1  56   0   0   1   1  39   0  54   4   1   0   1   2   0   1   8   1   1   0   0   0   4   0   1   1   1   0   0   1   3  40   1  
68   1   1   1   1   2   1  57   1   4   1   0   1   0   1   0   1   0  84   1   1   0   2   1  26  34   0   0  16  27   1  21   1   0  37   1   1   0  14   0   0   1   1  43   0   0   8   1   1   0   1  11   7   1   0   0   0   3   1   1  
 0   0   1   0  10   0   0   0   1  46  31  89   1   1   0   1   5   1  31   2   1   1   1   3   1   1   1  12  21   0   6  12  33   0   4   1   1  17  16   1   1  11  67  41   0   1   1   0   1   1  78   0   1  15  85  61   1   0   1   1  
 1   1  23   1  80   1   1   1  40  71   0   1   3   0   1   0   0   1   0   3  46   2   1   1   6   8   1  15   0   5   1   0  16   0  17   0   2  26   1   1   0   0   1   1   0   1   1   0  40  77   1   1   0   1   0   0  19   0  63   0  
 2   5  43   0   1   1   1   0   0   1   1   1   1   1  31   1   0   1   1  81   5   0   0   0   1   0  94   1   1   1   2   5   1   8  37  58   9   1  87   3  52   1  54  80  63  15  42   2   1   1   1   0   1  32  68   4   1   0   1   7  
 1  14   3   1   0   1   0   0   1   1   1   0  66   1   4  14   1   0   0   2  33  48   8   7   1   4  13   0  12  34   0   0   1  13   1   0   1   0   1  63  13   0   1   1  46  10  91   1  40   1   6   1   1   1   0   4   1  14   1  60  
38   1   0   1   0   1   1   1   1   0   1   0   5   3   1   1  82   0   0   1   3  13   1   6   2   1   7   0   1   1   0   0  77   0   1   1  10   6   1   1  45  21   2   0   1   0   2   5   1  19   0   0   0   1  33   0   1   9   0  69  
39   1   5   0   1   0   0   0   1   7   0  48  12   1   1   0   1   0   0   0   1  43   0  14   1   1   1   7   1   1   0   0   1   1   1  29   1  37  20   7   0   1   1  21   1   0   1  99   1   8  17   0  70   0  15   0   1   1   0   2  
 4   1   2  64   1   1   7  49   1   1   0   1   1  10   1   4   1   1   1   5   0  76   1   0   1   1   0   2   0   1   0  16  19  12   1   0   0   1  39   1   1  16   1   0  60  60   1  22  12   1   0   1   1   0  68   3   3  15  37  15  
30   1   1   1   0   1   1  20   0   1   1   0   0   7   1   0   1  29   1   1   0   0   0   0  21  32   6   1   0   2   1   1   1   1  60   1   1   1   0   1   1   1   1  45   0  12   5  43  27   1   0   0   1   1   0   0  13  20   1   1  
 0  57  15  48   1   1  23   4   1   1   0   0   1   1   0   6   1   0   1   5   4   0   0  36   0   1  61  47   1   0  53  24   0   1   2   5  86   1   0   0   4   0   1   0   1  50   0   2   1   1   7  22  20  18   1   0   0   1  28   1  
 0  96   2   0  40   0   5   1   5   1   0   1   1   0   1   1  88  70   0   1   0  27   0   0   0   0   1  31   1   1  15   1   0   1   0   1   1   0   0   1   1   0   5  17   1   1   0   1   1   1  14   0   1  44   0  15  74   1   0   6  
46   1  55   0  33  38   0  48   1   1   1   1   4   1   1   1   1  47   8   1   0  74   1   0   0   0   1  23   1   1   0  49   0  62   1   1   3   1   4   1  54   0   0  58  12   0  46   1   1   1   1   1   0   0  42   0   0   2  33  83  
 1   1  45  85   0  58  24   0   1   1  56   1  16   8   0   1  37   0   1   9  13  26  57   4   1   0   0   0   1   9   1  36   1   0   0  31   3   4   0  12   1  21   1   0  72   0   1  62   9   1   1   1   1   1   1   1   3   7   0  13  
21   1   1   0   1  37   0  12   0   1  30   3   0  18  26   3   1  35   1   0   4   0   2  43   1   8   0  49   3   0  74   1   7   5   1   1   1   7   1   1   1   1   1   0   0   1   1   0   1  33   1   1   1   0   0  16   0   1   4   0  
 5   1   0   1   1   0   1   1   0   3   1   1   1  31   1   4   0   0   1  45   0   8  17   1   1  11  14   0  43   0   1  19   1   0  16   1   1   0   0   9  13  46  90   1  11  19   1   4   0  25  84   0   1   1   7   1   0  15  10   0  
 0   1   1   4  11   1   0  21   1   1   1  24   5   5   0  45   7   0   1  43   1   0   3   0   0  28   0   1   0   0   1   0   1  23   1   0   0   1  15   1  32   1   1  32   1  73   1  66   1  50   0   1   2   0  25   9   1   1   0   1  
44   0   0  17  69   4   0   1   1   7   0  37   0   5   1   0  99  19  10   1   0   1  36  42   0   1   1   0   1   0   0   2  66  79   1   1   0  37   1   3   1   0   0  10   1   7   1   1  95   0   1   1  37  18   1   1   1   0   0   0  
60   1  44   0  84   1   0  82   1   1  21   0  58   1   1   2   0  23   3  17  46   0   9   1  31  66   1   1   0   1   0   1   1  42  82   1   1   1   1   1   2   0   1   4   1   1   1   1   1  62  24   5   0   0  14   1  16   1  62   0  
 0  43   1   9   1   1   0   3  65   1  28   1  91   1  24   1   1   0   1   0   0   1   1   1  10  19  32   1   0   1   0   0  95   0   1   0  42   1   1  63  12   3   8   0  27   0   1   1   4   1   1   0   0  10   1  95   3   0   1   0  
 0  63  21  20  20   1   1  89   1   1   2   0  10   1   1  31   0  19  27   1  27   0   0  16   0   1   1   0   1   1   0   3   0  35   0  52  24   0   1   2   1   0   2   1  10   1   4   1   1  64   0  12   1   1   2   1   0   1   1   0  
 1  13  98   1  73   0   6   1   0   6   1   8   0   0   0   0   1  86  57   2   0   1   1  10   0  45   0   1  16   1   1   1   0   0  46  69   0   1   1   0   5   0  28   1   0   1   0   6   1   1   1   0   1   0  37   0   0   9   1   1  
 3   1  35   1   0   1   0   1   6   0  25   0  24  67   8   1   1   0   0   0   0   0   1   0   0  16   0   1   0   5  10   1   1  23   0  12   3   0   1   0  13   0   1   1   1  13   2   1   0   1   8   3   0   0   0   0  40   0  19   1  
 4   1   1   3   1  18   1   0   1   8   0   0  41   0   1   1  16   0   0   3   0  82  71   1   0   1   1   1   0   7   1   0  50   1   1   0  78  27   1   4   9   0   9  31   0   4   0   7   4   1  59  60   3   7   1   0   0   1   1   2  
 3   0   1   0   1   0   0  15  76  43   9  71   1   1  26   9   1   0  18   1   7   1   1  30  51  22   1   1   9   0   0   2  39  61   1   4   0   1   0  26   1   1   0  69   1   1   3  45  68   1  29   1   1  60  64   0   1   4  10   1  
60   1   1   0   1   0   0   1   4   7   1   1  53   0   1   1   0  89   1  36  57  76   0  75   0   1   1   1  12   1   9   9   1   0  42   1   1   0   0   0   1   0   1   0   0   1   1   1   1   2  18   1   0   1   1   1  69  16   1   1  
 1   1  58   9  85   0   0  19  65  77   1   1   8   1   0   0  26   0   0  14   1   1  97   0   1   0   0   1   1   1  12   1   0   0   0  74   1   1   0   1   1   2   0   3  83   6  87  84   0   1   0   1   1   0   0   0   1   0  70   4  
 0  12   1   1   1   0   1   0   1   0   0  13   1   1   1   5   0   1  30   1   0  66   1   1  35  94   4   7   1   0   0   1   1   1   0   0   0   0   1   0   1   1   8  66   1  51   0   0   4  20   1   3  53   1   0   3   0   5   0   0  
 1   0   0   0   5   0   1   0   1   0   1   6   1   1   0   1   1   1   1   0   1  80   1  48   0  17  65   1   0   1   0   1   1  50   1   1   0   1   0   0   0  26   0   4  93   1   0   1   2  82   1   0   2   5   1  11   2   0   1   0  
 1  38   3   0  60  13   0   1   1   1   1  60   1  39   0   2  72   0   1   0  69   3   3   0  52   4   1   1   8   1   0   0   1   1   0  24   2   1  52   4   0   0   1   7   1  60   4   1   1   1   0   0   1   1   0   0   1  35   0   1  
 1  61   0   5  86   1  24   1   0  81   0   3  86   0   7   0   1   0   1   1   2   0   1   0   0  12  64   1   0   1   0   0   4   1   1   0   7   1  65  55   1   4   0  37  28   1   1   1  52  56   1   1   0  11   1   0   0   0   1   0  
 0   0   1   3   1   1  64  48  73   0  35   0   1   1   7  57   1  13   0   0   1   1   1   1   0  37   1   0   1   8   0   0   0   1   0   1  13   0   1   0   1  31   1   0   0   1   8   5   1  31  58   1  65   0  77  39   0  33   0   8  
 0   0   1   0  71  69  24  34   1   0   1   1   0   0   1   3  72   1   1   0  94   1  70   1   3   1  18   1  12   1   1   6   1  23   1  18   1   0  20   1   0   0   6   1   0   0   1   1   1   1  45   1  25   1   0   1   1   1   1   1  
 0   0   0   1  98  23  34   0   1   6   1   0  56  24   2  20   1   1   0   0   2   1   1   0  10   1   0   1   1  11   0   0   1   1   1   1   7   5   0   0  19   0  26  67   0   0  47  11  99   1  11  24   0   0   1   1   0   1  32   0  
 1  14   8   1   1   0  12   0  13  79   5   4   1  59   0   1   1  20   1   1  11   1   1   1   1   1  26  15   0   1   1   1  21  53   1  52   1  44  17   0   0   0   1   0   1   1   0   0   1  12   0  81   0  21   1  22   1   1   1   4  
 0   1   0  26  22  63  59   2   1   1   1  33   1   0   1   1  26   0   1   0   0   1   1  23   8   1   1   3   0  41  27  67   7  12   1  90   0   1  52  27   4   1   1   1   0   1  51   0   0  70   1   1   0   0   1  15   0   1   3   4  
90   1  28   0  46   1   0   6  60   0   1  53   1   1  35   1  14   4  11   1   0  49   6   0  17  35   0   1   1   1   0  44   1   0   1   1   0   1   6   1   0   1   0  41  18   2   1   3   0   1   0  26  22   7   1  56   1   1   1   0  
16   0   0   7  41   5   1   1  11   6   0   2  41   6   1   1  28  26   0   1   0   1   1   0  55  35   1   0   2   1   0   0  14   1  63   1  97   1   3  70   1  53   0   1   1  95   0   1   0   0   0   1   2   1  53   1   1  38  10  16  
 6  83  50  30   4   1  14  59   0   2  73  28   1   1   1   0   9   1   1   1   0  37   0   1   1   0   1  32  54   1   1   1   1   0   0   4   1   3   6   1   0   1   0   1   0   1  44   1   0   1   0   0   7  91   0  17   1   0   1   0  
 1  53   0   1   9   1   1  80   1   1   1   1   0   0   0   3   0   0   1   4   0   2   1   1   1   0  38   1   0  75   0  28   0   1   1  17   3   8  13   1   1   1  31   0   0   0  91   1  32   1   1   0   2   0  59   0   0   1   0   1  
 1   1   4   0   2   0   1   1   0   1  11   0   0   1  37   0   1   3   0   0   0   0   1   1   3  36   1   1   0   2   1  10   0   1  21   0   0   4   1   2   6   1  67   7  34   0   1   0   1   0   0   2   0  11   1   7   1   1  47   1  
 0  35  82  45   0  46  63  64   1  34  66   9   1   0  62   0   1  57   1   0   1   1  15   1   1   1   1   9   1   0   0   0   0   1   1  23   1   0   1   0   2   1   8   1   0   1   1   0  26   1   1   0  36   0   0  37   0  13  73   2  
 1   0   1  25   1   1   4   0   1   0  75   1   0   1  49   0   1   1   1   0   0   3  47  71   0   0   1  26   1   0  58   0   1   7  33   1  19   1   0  14   0   1  38   1   1  34  39   1   1   0  94   0   0   1   0   1   1   0   1   1  
47  30   0   1   0   0  33  17   1   1   5   5  73   1   1  61   3   1  34   1   1   1   0   1  17   0   1  24  32   1   7   1   1   1   0  33   6   0  16   0   0  58   1  21   1   7   1   1   0  14  36  59   1  79   1   0   1   1   3   0  
 1   1   1   0   0   0  33  30   0   0   1   2   6   1   1   1  53   1   1  12   0   0   1   1   1   1   1  22   1   3   1   0   0   0   8   1   7   0   0   1  28   0   0   1   1   1   1  17  16   0   0   4   4   1   6   1   0  29   2   1  
81   7  13  22   0   1  13   1   4   0   0   1   0   1   0   1   1   3  13  11   1   4   1   1   1   1   1   1   2  76   1   1  41   0  17   1  17   1   1   0   0   1   1   1   9   1   4   1   0   6   0   7   1  22   0   0   1   0  94  13  
95   0  46  55   1   1   1   1   1   5   0   1   5   1   0  31  97  22  60   1  13   0   7   0   1   1   1   9   1  90  13   1   1  95   0   1   0  90  36  17   0  41  11   0   1   3   0   1   1   6  24   0   1   1   5  59  45   6   0  10  
59   3  20   1   1   1   1  79   0  98   4   1   1   3   1  66  13   0   1   1   1   3   1  22   0   0   1   7   3   0  82   0   1   1  28   0   0   1   0   2   1  69   0   0  12   0   1   5   1   1   3  42  14   1   1   1   1   1   2   0  
